(set-logic QF_UF)
(declare-sort U 0)
(declare-sort I 0)
(declare-fun unit () I)
(declare-fun op (I I) I)
(declare-fun e5 () I)
(declare-fun e4 () I)
(declare-fun e3 () I)
(declare-fun e2 () I)
(declare-fun e1 () I)
(declare-fun e0 () I)
(assert (= (and (= e0 (op e5 (op e5 e0))) (not (= unit (op e5 e0)))) (and (= e0 (op e5 (op e5 e0))) (not (= e0 (op e5 e0))))))
(assert (= (and (= e0 (op e4 (op e4 e0))) (not (= unit (op e4 e0)))) (and (= e0 (op e4 (op e4 e0))) (not (= e0 (op e4 e0))))))
(assert (= (and (= e0 (op e3 (op e3 e0))) (not (= unit (op e3 e0)))) (and (= e0 (op e3 (op e3 e0))) (not (= e0 (op e3 e0))))))
(assert (= (and (= e0 (op e2 (op e2 e0))) (not (= unit (op e2 e0)))) (and (= e0 (op e2 (op e2 e0))) (not (= e0 (op e2 e0))))))
(assert (= (and (= e0 (op e0 (op e0 e0))) (not (= unit (op e0 e0)))) (and (= e0 (op e0 (op e0 e0))) (not (= e0 (op e0 e0))))))
(assert (= (and (= e0 (op e1 (op e1 e0))) (not (= unit (op e1 e0)))) (and (= e0 (op e1 (op e1 e0))) (not (= e0 (op e1 e0))))))
(assert (not (= (or (and (= e0 (op e5 (op e5 e0))) (not (= unit (op e5 e0)))) (and (= e0 (op e4 (op e4 e0))) (not (= unit (op e4 e0)))) (and (= e0 (op e3 (op e3 e0))) (not (= unit (op e3 e0)))) (and (= e0 (op e2 (op e2 e0))) (not (= unit (op e2 e0)))) (and (= e0 (op e0 (op e0 e0))) (not (= unit (op e0 e0)))) (and (= e0 (op e1 (op e1 e0))) (not (= unit (op e1 e0))))) (or (and (= e0 (op e5 (op e5 e0))) (not (= e0 (op e5 e0)))) (and (= e0 (op e4 (op e4 e0))) (not (= e0 (op e4 e0)))) (and (= e0 (op e3 (op e3 e0))) (not (= e0 (op e3 e0)))) (and (= e0 (op e2 (op e2 e0))) (not (= e0 (op e2 e0)))) (and (= e0 (op e0 (op e0 e0))) (not (= e0 (op e0 e0)))) (and (= e0 (op e1 (op e1 e0))) (not (= e0 (op e1 e0))))))))
(check-sat)
(exit)
